100
128
33
43
62
26
6
10
22
18
23
14
47
20
22
15
41
16
12
20
43
54
30
31
40
34
13
17
25
37
16
29
31
42
58
51
16
46
2
38
41
18
18
20
23
64
27
33
26
58
46
17
64
19
17
40
31
38
59
15
53
17
48
37
42
16
34
35
55
55
57
31
42
18
30
24
24
52
40
26
62
27
37
48
55
24
46
38
14
29
47
49
60
9
55
18
43
42
60
56
58
56